Automatic mesh
0
Monkhorst-Pack
5 5 3
0 0 0